Minimize
	value: tt

Subject to
tt + 1000 s_1_1 > 0.0
tt - t_1_1 - 1005.969934 s_1_1  + 2.984967 s_1_8  + 2.984967 s_1_7  > -970.822756
tt + 1000 s_2_1 > 0.0
tt - t_2_1 - 1005.217146 s_2_1  + 2.608573 s_2_8  + 2.608573 s_2_7  > -958.954600
tt + 1000 s_1_2 > 0.0
tt - t_1_2 - 1002.984967 s_1_2  + 2.984967 s_1_7  > -970.890100
tt + 1000 s_2_2 > 0.0
tt - t_2_2 - 1002.608573 s_2_2  + 2.608573 s_2_7  > -959.371089
tt + 1000 s_1_3 > 0.0
tt - t_1_3 - 1005.969934 s_1_3  + 2.984967 s_1_8  + 2.984967 s_1_7  > -998.922700
tt + 1000 s_2_3 > 0.0
tt - t_2_3 - 1005.217146 s_2_3  + 2.608573 s_2_8  + 2.608573 s_2_7  > -994.790944
tt + 1000 s_1_4 > 0.0
tt - t_1_4 - 1002.984967 s_1_4  + 2.984967 s_1_7  > -997.540656
tt + 1000 s_2_4 > 0.0
tt - t_2_4 - 1002.608573 s_2_4  + 2.608573 s_2_7  > -992.070113
tt + 1000 s_1_5 > 0.0
tt - t_1_5 - 1002.984967 s_1_5  + 2.984967 s_1_8  > -985.863033
tt + 1000 s_2_5 > 0.0
tt - t_2_5 - 1002.608573 s_2_5  + 2.608573 s_2_8  > -979.071367
tt + 1000 s_1_6 > 0.0
tt - t_1_6 - 1017.909802 s_1_6  + 2.984967 s_1_4  + 2.984967 s_1_5  + 2.984967 s_1_7  + 2.984967 s_1_2  + 2.984967 s_1_3  + 2.984967 s_1_1  > -999.050800
tt + 1000 s_2_6 > 0.0
tt - t_2_6 - 1015.651437 s_2_6  + 2.608573 s_2_4  + 2.608573 s_2_5  + 2.608573 s_2_7  + 2.608573 s_2_2  + 2.608573 s_2_3  + 2.608573 s_2_1  > -997.273700
tt + 1000 s_1_7 > 0.0
tt - t_1_7 - 1000.000000 s_1_7  > -963.364000
tt + 1000 s_2_7 > 0.0
tt - t_2_7 - 1000.000000 s_2_7  > -965.648000
tt + 1000 s_1_8 > 0.0
tt - t_1_8 - 1000.000000 s_1_8  > -929.090000
tt + 1000 s_2_8 > 0.0
tt - t_2_8 - 1000.000000 s_2_8  > -955.295900
s_1_1 + s_2_1 = 1
s_1_2 + s_2_2 = 1
s_1_3 + s_2_3 = 1
s_1_4 + s_2_4 = 1
s_1_5 + s_2_5 = 1
s_1_6 + s_2_6 = 1
s_1_7 + s_2_7 = 1
s_1_8 + s_2_8 = 1
s_1_1 + s_1_2 + 1000 r_1_1_2 >= 2
- s_1_1 - s_1_2 - 1000 r_1_1_2 >= -1001
t_1_1 - t_1_2 - 1000.000000 u_1_1_2 - 2.984967 s_1_2  + 2.984967 s_1_7  + 2000.000000 r_1_1_2 > -970.890100
s_2_1 + s_2_2 + 1000 r_2_1_2 >= 2
- s_2_1 - s_2_2 - 1000 r_2_1_2 >= -1001
t_2_1 - t_2_2 - 1000.000000 u_2_1_2 - 2.608573 s_2_2  + 2.608573 s_2_7  + 2000.000000 r_2_1_2 > -959.371089
s_1_1 + s_1_3 + 1000 r_1_1_3 >= 2
- s_1_1 - s_1_3 - 1000 r_1_1_3 >= -1001
t_1_1 - t_1_3 - 1000.000000 u_1_1_3 - 5.969934 s_1_3  + 2.984967 s_1_8  + 2.984967 s_1_7  + 2000.000000 r_1_1_3 > -998.922700
s_2_1 + s_2_3 + 1000 r_2_1_3 >= 2
- s_2_1 - s_2_3 - 1000 r_2_1_3 >= -1001
t_2_1 - t_2_3 - 1000.000000 u_2_1_3 - 5.217146 s_2_3  + 2.608573 s_2_8  + 2.608573 s_2_7  + 2000.000000 r_2_1_3 > -994.790944
s_1_1 + s_1_4 + 1000 r_1_1_4 >= 2
- s_1_1 - s_1_4 - 1000 r_1_1_4 >= -1001
t_1_1 - t_1_4 - 1000.000000 u_1_1_4 - 2.984967 s_1_4  + 2.984967 s_1_7  + 2000.000000 r_1_1_4 > -997.540656
s_2_1 + s_2_4 + 1000 r_2_1_4 >= 2
- s_2_1 - s_2_4 - 1000 r_2_1_4 >= -1001
t_2_1 - t_2_4 - 1000.000000 u_2_1_4 - 2.608573 s_2_4  + 2.608573 s_2_7  + 2000.000000 r_2_1_4 > -992.070113
s_1_1 + s_1_5 + 1000 r_1_1_5 >= 2
- s_1_1 - s_1_5 - 1000 r_1_1_5 >= -1001
t_1_1 - t_1_5 - 1000.000000 u_1_1_5 - 2.984967 s_1_5  + 2.984967 s_1_8  + 2000.000000 r_1_1_5 > -985.863033
s_2_1 + s_2_5 + 1000 r_2_1_5 >= 2
- s_2_1 - s_2_5 - 1000 r_2_1_5 >= -1001
t_2_1 - t_2_5 - 1000.000000 u_2_1_5 - 2.608573 s_2_5  + 2.608573 s_2_8  + 2000.000000 r_2_1_5 > -979.071367
t_1_6 - t_1_1 - 1005.969934 s_1_1  + 2.984967 s_1_8  + 2.984967 s_1_7  > -970.822756
t_1_6 - t_2_1 - 1005.217146 s_2_1  + 2.608573 s_2_8  + 2.608573 s_2_7  > -958.954600
t_2_6 - t_1_1 - 1005.969934 s_1_1  + 2.984967 s_1_8  + 2.984967 s_1_7  > -970.822756
t_2_6 - t_2_1 - 1005.217146 s_2_1  + 2.608573 s_2_8  + 2.608573 s_2_7  > -958.954600
t_1_1 - t_1_7 - 1000.000000 s_1_7  > -963.364000
t_1_1 - t_2_7 - 1000.000000 s_2_7  > -965.648000
t_2_1 - t_1_7 - 1000.000000 s_1_7  > -963.364000
t_2_1 - t_2_7 - 1000.000000 s_2_7  > -965.648000
t_1_1 - t_1_8 - 1000.000000 s_1_8  > -929.090000
t_1_1 - t_2_8 - 1000.000000 s_2_8  > -955.295900
t_2_1 - t_1_8 - 1000.000000 s_1_8  > -929.090000
t_2_1 - t_2_8 - 1000.000000 s_2_8  > -955.295900
s_1_2 + s_1_1 + 1000 r_1_1_2 >= 2
- s_1_2 - s_1_1 - 1000 r_1_1_2 >= -1001
t_1_2 - t_1_1 + 1000.000000 u_1_1_2 - 5.969934 s_1_1  + 2.984967 s_1_8  + 2.984967 s_1_7  + 2000.000000 r_1_1_2 > 29.177244
s_2_2 + s_2_1 + 1000 r_2_1_2 >= 2
- s_2_2 - s_2_1 - 1000 r_2_1_2 >= -1001
t_2_2 - t_2_1 + 1000.000000 u_2_1_2 - 5.217146 s_2_1  + 2.608573 s_2_8  + 2.608573 s_2_7  + 2000.000000 r_2_1_2 > 41.045400
s_1_2 + s_1_3 + 1000 r_1_2_3 >= 2
- s_1_2 - s_1_3 - 1000 r_1_2_3 >= -1001
t_1_2 - t_1_3 - 1000.000000 u_1_2_3 - 5.969934 s_1_3  + 2.984967 s_1_8  + 2.984967 s_1_7  + 2000.000000 r_1_2_3 > -998.922700
s_2_2 + s_2_3 + 1000 r_2_2_3 >= 2
- s_2_2 - s_2_3 - 1000 r_2_2_3 >= -1001
t_2_2 - t_2_3 - 1000.000000 u_2_2_3 - 5.217146 s_2_3  + 2.608573 s_2_8  + 2.608573 s_2_7  + 2000.000000 r_2_2_3 > -994.790944
s_1_2 + s_1_4 + 1000 r_1_2_4 >= 2
- s_1_2 - s_1_4 - 1000 r_1_2_4 >= -1001
t_1_2 - t_1_4 - 1000.000000 u_1_2_4 - 2.984967 s_1_4  + 2.984967 s_1_7  + 2000.000000 r_1_2_4 > -997.540656
s_2_2 + s_2_4 + 1000 r_2_2_4 >= 2
- s_2_2 - s_2_4 - 1000 r_2_2_4 >= -1001
t_2_2 - t_2_4 - 1000.000000 u_2_2_4 - 2.608573 s_2_4  + 2.608573 s_2_7  + 2000.000000 r_2_2_4 > -992.070113
s_1_2 + s_1_5 + 1000 r_1_2_5 >= 2
- s_1_2 - s_1_5 - 1000 r_1_2_5 >= -1001
t_1_2 - t_1_5 - 1000.000000 u_1_2_5 - 2.984967 s_1_5  + 2.984967 s_1_8  + 2000.000000 r_1_2_5 > -985.863033
s_2_2 + s_2_5 + 1000 r_2_2_5 >= 2
- s_2_2 - s_2_5 - 1000 r_2_2_5 >= -1001
t_2_2 - t_2_5 - 1000.000000 u_2_2_5 - 2.608573 s_2_5  + 2.608573 s_2_8  + 2000.000000 r_2_2_5 > -979.071367
t_1_6 - t_1_2 - 1002.984967 s_1_2  + 2.984967 s_1_7  > -970.890100
t_1_6 - t_2_2 - 1002.608573 s_2_2  + 2.608573 s_2_7  > -959.371089
t_2_6 - t_1_2 - 1002.984967 s_1_2  + 2.984967 s_1_7  > -970.890100
t_2_6 - t_2_2 - 1002.608573 s_2_2  + 2.608573 s_2_7  > -959.371089
t_1_2 - t_1_7 - 1000.000000 s_1_7  > -963.364000
t_1_2 - t_2_7 - 1000.000000 s_2_7  > -965.648000
t_2_2 - t_1_7 - 1000.000000 s_1_7  > -963.364000
t_2_2 - t_2_7 - 1000.000000 s_2_7  > -965.648000
s_1_2 + s_1_8 + 1000 r_1_2_8 >= 2
- s_1_2 - s_1_8 - 1000 r_1_2_8 >= -1001
t_1_2 - t_1_8 - 1000.000000 u_1_2_8 - 0.000000 s_1_8  + 2000.000000 r_1_2_8 > -929.090000
s_2_2 + s_2_8 + 1000 r_2_2_8 >= 2
- s_2_2 - s_2_8 - 1000 r_2_2_8 >= -1001
t_2_2 - t_2_8 - 1000.000000 u_2_2_8 - 0.000000 s_2_8  + 2000.000000 r_2_2_8 > -955.295900
s_1_3 + s_1_1 + 1000 r_1_1_3 >= 2
- s_1_3 - s_1_1 - 1000 r_1_1_3 >= -1001
t_1_3 - t_1_1 + 1000.000000 u_1_1_3 - 5.969934 s_1_1  + 2.984967 s_1_8  + 2.984967 s_1_7  + 2000.000000 r_1_1_3 > 29.177244
s_2_3 + s_2_1 + 1000 r_2_1_3 >= 2
- s_2_3 - s_2_1 - 1000 r_2_1_3 >= -1001
t_2_3 - t_2_1 + 1000.000000 u_2_1_3 - 5.217146 s_2_1  + 2.608573 s_2_8  + 2.608573 s_2_7  + 2000.000000 r_2_1_3 > 41.045400
s_1_3 + s_1_2 + 1000 r_1_2_3 >= 2
- s_1_3 - s_1_2 - 1000 r_1_2_3 >= -1001
t_1_3 - t_1_2 + 1000.000000 u_1_2_3 - 2.984967 s_1_2  + 2.984967 s_1_7  + 2000.000000 r_1_2_3 > 29.109900
s_2_3 + s_2_2 + 1000 r_2_2_3 >= 2
- s_2_3 - s_2_2 - 1000 r_2_2_3 >= -1001
t_2_3 - t_2_2 + 1000.000000 u_2_2_3 - 2.608573 s_2_2  + 2.608573 s_2_7  + 2000.000000 r_2_2_3 > 40.628911
s_1_3 + s_1_4 + 1000 r_1_3_4 >= 2
- s_1_3 - s_1_4 - 1000 r_1_3_4 >= -1001
t_1_3 - t_1_4 - 1000.000000 u_1_3_4 - 2.984967 s_1_4  + 2.984967 s_1_7  + 2000.000000 r_1_3_4 > -997.540656
s_2_3 + s_2_4 + 1000 r_2_3_4 >= 2
- s_2_3 - s_2_4 - 1000 r_2_3_4 >= -1001
t_2_3 - t_2_4 - 1000.000000 u_2_3_4 - 2.608573 s_2_4  + 2.608573 s_2_7  + 2000.000000 r_2_3_4 > -992.070113
s_1_3 + s_1_5 + 1000 r_1_3_5 >= 2
- s_1_3 - s_1_5 - 1000 r_1_3_5 >= -1001
t_1_3 - t_1_5 - 1000.000000 u_1_3_5 - 2.984967 s_1_5  + 2.984967 s_1_8  + 2000.000000 r_1_3_5 > -985.863033
s_2_3 + s_2_5 + 1000 r_2_3_5 >= 2
- s_2_3 - s_2_5 - 1000 r_2_3_5 >= -1001
t_2_3 - t_2_5 - 1000.000000 u_2_3_5 - 2.608573 s_2_5  + 2.608573 s_2_8  + 2000.000000 r_2_3_5 > -979.071367
t_1_6 - t_1_3 - 1005.969934 s_1_3  + 2.984967 s_1_8  + 2.984967 s_1_7  > -998.922700
t_1_6 - t_2_3 - 1005.217146 s_2_3  + 2.608573 s_2_8  + 2.608573 s_2_7  > -994.790944
t_2_6 - t_1_3 - 1005.969934 s_1_3  + 2.984967 s_1_8  + 2.984967 s_1_7  > -998.922700
t_2_6 - t_2_3 - 1005.217146 s_2_3  + 2.608573 s_2_8  + 2.608573 s_2_7  > -994.790944
t_1_3 - t_1_7 - 1000.000000 s_1_7  > -963.364000
t_1_3 - t_2_7 - 1000.000000 s_2_7  > -965.648000
t_2_3 - t_1_7 - 1000.000000 s_1_7  > -963.364000
t_2_3 - t_2_7 - 1000.000000 s_2_7  > -965.648000
t_1_3 - t_1_8 - 1000.000000 s_1_8  > -929.090000
t_1_3 - t_2_8 - 1000.000000 s_2_8  > -955.295900
t_2_3 - t_1_8 - 1000.000000 s_1_8  > -929.090000
t_2_3 - t_2_8 - 1000.000000 s_2_8  > -955.295900
s_1_4 + s_1_1 + 1000 r_1_1_4 >= 2
- s_1_4 - s_1_1 - 1000 r_1_1_4 >= -1001
t_1_4 - t_1_1 + 1000.000000 u_1_1_4 - 5.969934 s_1_1  + 2.984967 s_1_8  + 2.984967 s_1_7  + 2000.000000 r_1_1_4 > 29.177244
s_2_4 + s_2_1 + 1000 r_2_1_4 >= 2
- s_2_4 - s_2_1 - 1000 r_2_1_4 >= -1001
t_2_4 - t_2_1 + 1000.000000 u_2_1_4 - 5.217146 s_2_1  + 2.608573 s_2_8  + 2.608573 s_2_7  + 2000.000000 r_2_1_4 > 41.045400
s_1_4 + s_1_2 + 1000 r_1_2_4 >= 2
- s_1_4 - s_1_2 - 1000 r_1_2_4 >= -1001
t_1_4 - t_1_2 + 1000.000000 u_1_2_4 - 2.984967 s_1_2  + 2.984967 s_1_7  + 2000.000000 r_1_2_4 > 29.109900
s_2_4 + s_2_2 + 1000 r_2_2_4 >= 2
- s_2_4 - s_2_2 - 1000 r_2_2_4 >= -1001
t_2_4 - t_2_2 + 1000.000000 u_2_2_4 - 2.608573 s_2_2  + 2.608573 s_2_7  + 2000.000000 r_2_2_4 > 40.628911
s_1_4 + s_1_3 + 1000 r_1_3_4 >= 2
- s_1_4 - s_1_3 - 1000 r_1_3_4 >= -1001
t_1_4 - t_1_3 + 1000.000000 u_1_3_4 - 5.969934 s_1_3  + 2.984967 s_1_8  + 2.984967 s_1_7  + 2000.000000 r_1_3_4 > 1.077300
s_2_4 + s_2_3 + 1000 r_2_3_4 >= 2
- s_2_4 - s_2_3 - 1000 r_2_3_4 >= -1001
t_2_4 - t_2_3 + 1000.000000 u_2_3_4 - 5.217146 s_2_3  + 2.608573 s_2_8  + 2.608573 s_2_7  + 2000.000000 r_2_3_4 > 5.209056
s_1_4 + s_1_5 + 1000 r_1_4_5 >= 2
- s_1_4 - s_1_5 - 1000 r_1_4_5 >= -1001
t_1_4 - t_1_5 - 1000.000000 u_1_4_5 - 2.984967 s_1_5  + 2.984967 s_1_8  + 2000.000000 r_1_4_5 > -985.863033
s_2_4 + s_2_5 + 1000 r_2_4_5 >= 2
- s_2_4 - s_2_5 - 1000 r_2_4_5 >= -1001
t_2_4 - t_2_5 - 1000.000000 u_2_4_5 - 2.608573 s_2_5  + 2.608573 s_2_8  + 2000.000000 r_2_4_5 > -979.071367
t_1_6 - t_1_4 - 1002.984967 s_1_4  + 2.984967 s_1_7  > -997.540656
t_1_6 - t_2_4 - 1002.608573 s_2_4  + 2.608573 s_2_7  > -992.070113
t_2_6 - t_1_4 - 1002.984967 s_1_4  + 2.984967 s_1_7  > -997.540656
t_2_6 - t_2_4 - 1002.608573 s_2_4  + 2.608573 s_2_7  > -992.070113
t_1_4 - t_1_7 - 1000.000000 s_1_7  > -963.364000
t_1_4 - t_2_7 - 1000.000000 s_2_7  > -965.648000
t_2_4 - t_1_7 - 1000.000000 s_1_7  > -963.364000
t_2_4 - t_2_7 - 1000.000000 s_2_7  > -965.648000
s_1_4 + s_1_8 + 1000 r_1_4_8 >= 2
- s_1_4 - s_1_8 - 1000 r_1_4_8 >= -1001
t_1_4 - t_1_8 - 1000.000000 u_1_4_8 - 0.000000 s_1_8  + 2000.000000 r_1_4_8 > -929.090000
s_2_4 + s_2_8 + 1000 r_2_4_8 >= 2
- s_2_4 - s_2_8 - 1000 r_2_4_8 >= -1001
t_2_4 - t_2_8 - 1000.000000 u_2_4_8 - 0.000000 s_2_8  + 2000.000000 r_2_4_8 > -955.295900
s_1_5 + s_1_1 + 1000 r_1_1_5 >= 2
- s_1_5 - s_1_1 - 1000 r_1_1_5 >= -1001
t_1_5 - t_1_1 + 1000.000000 u_1_1_5 - 5.969934 s_1_1  + 2.984967 s_1_8  + 2.984967 s_1_7  + 2000.000000 r_1_1_5 > 29.177244
s_2_5 + s_2_1 + 1000 r_2_1_5 >= 2
- s_2_5 - s_2_1 - 1000 r_2_1_5 >= -1001
t_2_5 - t_2_1 + 1000.000000 u_2_1_5 - 5.217146 s_2_1  + 2.608573 s_2_8  + 2.608573 s_2_7  + 2000.000000 r_2_1_5 > 41.045400
s_1_5 + s_1_2 + 1000 r_1_2_5 >= 2
- s_1_5 - s_1_2 - 1000 r_1_2_5 >= -1001
t_1_5 - t_1_2 + 1000.000000 u_1_2_5 - 2.984967 s_1_2  + 2.984967 s_1_7  + 2000.000000 r_1_2_5 > 29.109900
s_2_5 + s_2_2 + 1000 r_2_2_5 >= 2
- s_2_5 - s_2_2 - 1000 r_2_2_5 >= -1001
t_2_5 - t_2_2 + 1000.000000 u_2_2_5 - 2.608573 s_2_2  + 2.608573 s_2_7  + 2000.000000 r_2_2_5 > 40.628911
s_1_5 + s_1_3 + 1000 r_1_3_5 >= 2
- s_1_5 - s_1_3 - 1000 r_1_3_5 >= -1001
t_1_5 - t_1_3 + 1000.000000 u_1_3_5 - 5.969934 s_1_3  + 2.984967 s_1_8  + 2.984967 s_1_7  + 2000.000000 r_1_3_5 > 1.077300
s_2_5 + s_2_3 + 1000 r_2_3_5 >= 2
- s_2_5 - s_2_3 - 1000 r_2_3_5 >= -1001
t_2_5 - t_2_3 + 1000.000000 u_2_3_5 - 5.217146 s_2_3  + 2.608573 s_2_8  + 2.608573 s_2_7  + 2000.000000 r_2_3_5 > 5.209056
s_1_5 + s_1_4 + 1000 r_1_4_5 >= 2
- s_1_5 - s_1_4 - 1000 r_1_4_5 >= -1001
t_1_5 - t_1_4 + 1000.000000 u_1_4_5 - 2.984967 s_1_4  + 2.984967 s_1_7  + 2000.000000 r_1_4_5 > 2.459344
s_2_5 + s_2_4 + 1000 r_2_4_5 >= 2
- s_2_5 - s_2_4 - 1000 r_2_4_5 >= -1001
t_2_5 - t_2_4 + 1000.000000 u_2_4_5 - 2.608573 s_2_4  + 2.608573 s_2_7  + 2000.000000 r_2_4_5 > 7.929887
t_1_6 - t_1_5 - 1002.984967 s_1_5  + 2.984967 s_1_8  > -985.863033
t_1_6 - t_2_5 - 1002.608573 s_2_5  + 2.608573 s_2_8  > -979.071367
t_2_6 - t_1_5 - 1002.984967 s_1_5  + 2.984967 s_1_8  > -985.863033
t_2_6 - t_2_5 - 1002.608573 s_2_5  + 2.608573 s_2_8  > -979.071367
s_1_5 + s_1_7 + 1000 r_1_5_7 >= 2
- s_1_5 - s_1_7 - 1000 r_1_5_7 >= -1001
t_1_5 - t_1_7 - 1000.000000 u_1_5_7 - 0.000000 s_1_7  + 2000.000000 r_1_5_7 > -963.364000
s_2_5 + s_2_7 + 1000 r_2_5_7 >= 2
- s_2_5 - s_2_7 - 1000 r_2_5_7 >= -1001
t_2_5 - t_2_7 - 1000.000000 u_2_5_7 - 0.000000 s_2_7  + 2000.000000 r_2_5_7 > -965.648000
t_1_5 - t_1_8 - 1000.000000 s_1_8  > -929.090000
t_1_5 - t_2_8 - 1000.000000 s_2_8  > -955.295900
t_2_5 - t_1_8 - 1000.000000 s_1_8  > -929.090000
t_2_5 - t_2_8 - 1000.000000 s_2_8  > -955.295900
t_1_6 - t_1_7 - 1000.000000 s_1_7  > -963.364000
t_1_6 - t_2_7 - 1000.000000 s_2_7  > -965.648000
t_2_6 - t_1_7 - 1000.000000 s_1_7  > -963.364000
t_2_6 - t_2_7 - 1000.000000 s_2_7  > -965.648000
s_1_7 + s_1_5 + 1000 r_1_5_7 >= 2
- s_1_7 - s_1_5 - 1000 r_1_5_7 >= -1001
t_1_7 - t_1_5 + 1000.000000 u_1_5_7 - 2.984967 s_1_5  + 2.984967 s_1_8  + 2000.000000 r_1_5_7 > 14.136967
s_2_7 + s_2_5 + 1000 r_2_5_7 >= 2
- s_2_7 - s_2_5 - 1000 r_2_5_7 >= -1001
t_2_7 - t_2_5 + 1000.000000 u_2_5_7 - 2.608573 s_2_5  + 2.608573 s_2_8  + 2000.000000 r_2_5_7 > 20.928633
s_1_7 + s_1_8 + 1000 r_1_7_8 >= 2
- s_1_7 - s_1_8 - 1000 r_1_7_8 >= -1001
t_1_7 - t_1_8 - 1000.000000 u_1_7_8 - 0.000000 s_1_8  + 2000.000000 r_1_7_8 > -929.090000
s_2_7 + s_2_8 + 1000 r_2_7_8 >= 2
- s_2_7 - s_2_8 - 1000 r_2_7_8 >= -1001
t_2_7 - t_2_8 - 1000.000000 u_2_7_8 - 0.000000 s_2_8  + 2000.000000 r_2_7_8 > -955.295900
s_1_8 + s_1_2 + 1000 r_1_2_8 >= 2
- s_1_8 - s_1_2 - 1000 r_1_2_8 >= -1001
t_1_8 - t_1_2 + 1000.000000 u_1_2_8 - 2.984967 s_1_2  + 2.984967 s_1_7  + 2000.000000 r_1_2_8 > 29.109900
s_2_8 + s_2_2 + 1000 r_2_2_8 >= 2
- s_2_8 - s_2_2 - 1000 r_2_2_8 >= -1001
t_2_8 - t_2_2 + 1000.000000 u_2_2_8 - 2.608573 s_2_2  + 2.608573 s_2_7  + 2000.000000 r_2_2_8 > 40.628911
s_1_8 + s_1_4 + 1000 r_1_4_8 >= 2
- s_1_8 - s_1_4 - 1000 r_1_4_8 >= -1001
t_1_8 - t_1_4 + 1000.000000 u_1_4_8 - 2.984967 s_1_4  + 2.984967 s_1_7  + 2000.000000 r_1_4_8 > 2.459344
s_2_8 + s_2_4 + 1000 r_2_4_8 >= 2
- s_2_8 - s_2_4 - 1000 r_2_4_8 >= -1001
t_2_8 - t_2_4 + 1000.000000 u_2_4_8 - 2.608573 s_2_4  + 2.608573 s_2_7  + 2000.000000 r_2_4_8 > 7.929887
s_1_8 + s_1_7 + 1000 r_1_7_8 >= 2
- s_1_8 - s_1_7 - 1000 r_1_7_8 >= -1001
t_1_8 - t_1_7 + 1000.000000 u_1_7_8 - 0.000000 s_1_7  + 2000.000000 r_1_7_8 > 36.636000
s_2_8 + s_2_7 + 1000 r_2_7_8 >= 2
- s_2_8 - s_2_7 - 1000 r_2_7_8 >= -1001
t_2_8 - t_2_7 + 1000.000000 u_2_7_8 - 0.000000 s_2_7  + 2000.000000 r_2_7_8 > 34.352000
Binary
s_1_1
s_2_1
s_1_2
s_2_2
s_1_3
s_2_3
s_1_4
s_2_4
s_1_5
s_2_5
s_1_6
s_2_6
s_1_7
s_2_7
s_1_8
s_2_8
u_1_1_2
r_1_1_2
u_2_1_2
r_2_1_2
u_1_1_3
r_1_1_3
u_2_1_3
r_2_1_3
u_1_1_4
r_1_1_4
u_2_1_4
r_2_1_4
u_1_1_5
r_1_1_5
u_2_1_5
r_2_1_5
u_1_2_3
r_1_2_3
u_2_2_3
r_2_2_3
u_1_2_4
r_1_2_4
u_2_2_4
r_2_2_4
u_1_2_5
r_1_2_5
u_2_2_5
r_2_2_5
u_1_2_8
r_1_2_8
u_2_2_8
r_2_2_8
u_1_3_4
r_1_3_4
u_2_3_4
r_2_3_4
u_1_3_5
r_1_3_5
u_2_3_5
r_2_3_5
u_1_4_5
r_1_4_5
u_2_4_5
r_2_4_5
u_1_4_8
r_1_4_8
u_2_4_8
r_2_4_8
u_1_5_7
r_1_5_7
u_2_5_7
r_2_5_7
u_1_7_8
r_1_7_8
u_2_7_8
r_2_7_8

End
